
n_res = 4;
rcap = [23, 27, 1070, 996];
rtype = [1, 1, 2, 2];
n_tasks = 100;
modes =  [{1, 2, 3, 4, 5, 6}, {7, 8, 9, 10, 11, 12}, {13, 14, 15, 16, 17, 18}, {19, 20, 21, 22, 23, 24}, {25, 26, 27, 28, 29, 30}, {31, 32, 33, 34, 35, 36}, {37, 38, 39, 40, 41, 42}, {43, 44, 45, 46, 47, 48}, {49, 50, 51, 52, 53, 54}, {55, 56, 57, 58, 59, 60}, {61, 62, 63, 64, 65, 66}, {67, 68, 69, 70, 71, 72}, {73, 74, 75, 76, 77, 78}, {79, 80, 81, 82, 83, 84}, {85, 86, 87, 88, 89, 90}, {91, 92, 93, 94, 95, 96}, {97, 98, 99, 100, 101, 102}, {103, 104, 105, 106, 107, 108}, {109, 110, 111, 112, 113, 114}, {115, 116, 117, 118, 119, 120}, {121, 122, 123, 124, 125, 126}, {127, 128, 129, 130, 131, 132}, {133, 134, 135, 136, 137, 138}, {139, 140, 141, 142, 143, 144}, {145, 146, 147, 148, 149, 150}, {151, 152, 153, 154, 155, 156}, {157, 158, 159, 160, 161, 162}, {163, 164, 165, 166, 167, 168}, {169, 170, 171, 172, 173, 174}, {175, 176, 177, 178, 179, 180}, {181, 182, 183, 184, 185, 186}, {187, 188, 189, 190, 191, 192}, {193, 194, 195, 196, 197, 198}, {199, 200, 201, 202, 203, 204}, {205, 206, 207, 208, 209, 210}, {211, 212, 213, 214, 215, 216}, {217, 218, 219, 220, 221, 222}, {223, 224, 225, 226, 227, 228}, {229, 230, 231, 232, 233, 234}, {235, 236, 237, 238, 239, 240}, {241, 242, 243, 244, 245, 246}, {247, 248, 249, 250, 251, 252}, {253, 254, 255, 256, 257, 258}, {259, 260, 261, 262, 263, 264}, {265, 266, 267, 268, 269, 270}, {271, 272, 273, 274, 275, 276}, {277, 278, 279, 280, 281, 282}, {283, 284, 285, 286, 287, 288}, {289, 290, 291, 292, 293, 294}, {295, 296, 297, 298, 299, 300}, {301, 302, 303, 304, 305, 306}, {307, 308, 309, 310, 311, 312}, {313, 314, 315, 316, 317, 318}, {319, 320, 321, 322, 323, 324}, {325, 326, 327, 328, 329, 330}, {331, 332, 333, 334, 335, 336}, {337, 338, 339, 340, 341, 342}, {343, 344, 345, 346, 347, 348}, {349, 350, 351, 352, 353, 354}, {355, 356, 357, 358, 359, 360}, {361, 362, 363, 364, 365, 366}, {367, 368, 369, 370, 371, 372}, {373, 374, 375, 376, 377, 378}, {379, 380, 381, 382, 383, 384}, {385, 386, 387, 388, 389, 390}, {391, 392, 393, 394, 395, 396}, {397, 398, 399, 400, 401, 402}, {403, 404, 405, 406, 407, 408}, {409, 410, 411, 412, 413, 414}, {415, 416, 417, 418, 419, 420}, {421, 422, 423, 424, 425, 426}, {427, 428, 429, 430, 431, 432}, {433, 434, 435, 436, 437, 438}, {439, 440, 441, 442, 443, 444}, {445, 446, 447, 448, 449, 450}, {451, 452, 453, 454, 455, 456}, {457, 458, 459, 460, 461, 462}, {463, 464, 465, 466, 467, 468}, {469, 470, 471, 472, 473, 474}, {475, 476, 477, 478, 479, 480}, {481, 482, 483, 484, 485, 486}, {487, 488, 489, 490, 491, 492}, {493, 494, 495, 496, 497, 498}, {499, 500, 501, 502, 503, 504}, {505, 506, 507, 508, 509, 510}, {511, 512, 513, 514, 515, 516}, {517, 518, 519, 520, 521, 522}, {523, 524, 525, 526, 527, 528}, {529, 530, 531, 532, 533, 534}, {535, 536, 537, 538, 539, 540}, {541, 542, 543, 544, 545, 546}, {547, 548, 549, 550, 551, 552}, {553, 554, 555, 556, 557, 558}, {559, 560, 561, 562, 563, 564}, {565, 566, 567, 568, 569, 570}, {571, 572, 573, 574, 575, 576}, {577, 578, 579, 580, 581, 582}, {583, 584, 585, 586, 587, 588}, {589, 590, 591, 592, 593, 594}, {595, 596, 597, 598, 599, 600}];
succ =  [{66, 58, 53, 37, 36, 35, 34, 33, 32, 8}, {98, 68, 65, 61, 60, 59, 56, 55, 54, 53, 52, 51, 50, 46, 42, 39, 38, 37, 35, 28}, {100, 99, 88, 71, 70, 69, 68, 67, 66, 61, 60, 59, 57, 55, 54, 51, 50, 47, 44, 40, 29, 24}, {95, 91, 86, 71, 69, 68, 67, 66, 61, 60, 59, 58, 52, 49, 47, 46, 44, 42, 36, 28}, {95, 72, 69, 68, 55, 50, 45, 44, 35, 32, 25, 24}, {100, 96, 95, 92, 71, 69, 68, 67, 58, 57, 56, 54, 53, 49, 48, 47, 44, 39, 37}, {100, 99, 98, 97, 96, 95, 94, 91, 72, 66, 65, 60, 58, 54, 53, 51, 50, 47, 35}, {99, 98, 96, 94, 88, 87, 85, 69, 68, 67, 62, 59, 56, 55, 50, 48, 42, 40}, {99, 98, 96, 92, 91, 86, 69, 68, 67, 59, 55, 48, 44, 26}, {99, 98, 97, 96, 95, 92, 91, 89, 88, 87, 81, 78, 76, 71, 70, 69, 68, 67, 66, 63, 62, 61, 52, 50, 44}, {100, 95, 94, 91, 90, 87, 79, 77, 66, 65, 64, 63, 60, 58, 54, 51, 35}, {97, 96, 95, 92, 91, 86, 84, 71, 68, 66, 62, 56, 51, 48, 47, 44}, {96, 95, 94, 93, 92, 80, 71, 69, 68, 66, 65, 62, 58, 49, 42}, {96, 94, 93, 91, 89, 88, 87, 86, 70, 67, 66, 62, 51, 48, 44}, {95, 94, 90, 86, 84, 77, 75, 72, 69, 67, 65, 64, 58, 53, 40}, {98, 97, 96, 95, 90, 77, 71, 68, 58, 54, 53, 35}, {100, 99, 95, 92, 91, 87, 86, 84, 83, 67, 64, 63, 62, 58, 55, 46}, {98, 96, 95, 91, 87, 86, 82, 77, 67, 65, 62, 61, 59, 54, 53, 48}, {95, 93, 90, 88, 82, 80, 70, 69, 60, 48, 37}, {100, 96, 95, 91, 89, 87, 86, 78, 77, 71, 70, 65, 63, 62, 60, 58, 54}, {99, 97, 96, 95, 91, 90, 88, 87, 86, 84, 83, 79, 66, 58, 57, 55}, {98, 90, 89, 86, 84, 77, 70, 69, 65, 53, 51, 48}, {100, 95, 94, 92, 89, 85, 84, 82, 81, 78, 77, 72, 68, 63, 62, 61}, {91, 86, 85, 84, 83, 81, 78, 64, 63, 62, 56, 46}, {98, 97, 93, 92, 90, 89, 86, 85, 84, 83, 80, 79, 78, 77, 66, 62, 58}, {97, 94, 93, 89, 88, 87, 84, 80, 79, 78, 77, 73, 66, 65, 62, 58}, {96, 95, 93, 92, 90, 89, 88, 87, 86, 78, 75, 69, 68, 66, 63, 59}, {97, 96, 92, 88, 87, 83, 82, 80, 77, 62, 48}, {98, 94, 93, 92, 91, 87, 86, 84, 80, 79, 78, 77, 75, 73, 58}, {98, 97, 96, 89, 85, 84, 82, 78, 77, 76, 74, 72, 63, 62}, {98, 97, 95, 91, 87, 85, 83, 81, 80, 78, 76, 75, 50}, {94, 86, 84, 83, 82, 81, 74, 63, 62, 59, 49}, {99, 94, 91, 87, 86, 84, 80, 76, 71, 65, 63, 62}, {95, 93, 85, 84, 82, 80, 75, 64, 48}, {93, 89, 88, 86, 84, 82, 78, 76, 74, 73, 67, 62}, {99, 96, 94, 92, 88, 84, 83, 81, 80, 79, 75, 74, 73}, {99, 97, 91, 87, 86, 85, 79, 78, 76, 74, 73, 62}, {100, 95, 91, 90, 88, 87, 83, 77, 76, 75, 74, 64}, {94, 93, 83, 80, 79, 77, 76, 66, 64, 62}, {93, 92, 91, 89, 82, 80, 79, 78, 76, 63}, {95, 89, 83, 81, 78, 77, 76, 74, 73, 62}, {100, 89, 84, 83, 82, 81, 77, 70, 64}, {94, 90, 89, 88, 82, 80, 78, 77, 75, 74}, {90, 83, 82, 79, 77, 74, 65, 64}, {97, 82, 81, 80, 78, 76, 75, 74, 73}, {94, 90, 89, 82, 79, 76, 74, 73}, {93, 87, 79, 78, 76, 74, 63}, {81, 79, 78, 76, 74, 63}, {88, 87, 79, 75, 73}, {90, 86, 77, 73}, {83, 82, 81, 73}, {80, 77, 75, 74}, {85, 83, 73}, {84, 75, 74}, {80, 78, 77}, {77, 76, 73}, {80, 77, 73}, {81, 76}, {76, 73}, {92, 74}, {80, 74}, {75}, {73}, {73}, {85}, {74}, {80}, {79}, {74}, {75}, {74}, {88}, {}, {}, {}, {}, {}, {}, {}, {}, {}, {}, {}, {}, {}, {}, {}, {}, {}, {}, {}, {}, {}, {}, {}, {}, {}, {}, {}, {}];
n_opt = 600;
dur = [4, 5, 6, 8, 13, 20, 8, 10, 13, 17, 19, 20, 4, 8, 9, 10, 12, 13, 14, 15, 16, 17, 18, 20, 6, 8, 10, 11, 14, 20, 2, 5, 10, 14, 16, 19, 3, 4, 6, 9, 11, 15, 2, 3, 4, 5, 12, 15, 1, 2, 8, 9, 10, 19, 4, 10, 11, 12, 14, 15, 5, 6, 7, 8, 9, 10, 2, 5, 6, 12, 15, 16, 1, 5, 7, 12, 19, 20, 2, 8, 11, 12, 15, 17, 1, 4, 10, 18, 19, 20, 2, 4, 10, 11, 13, 19, 3, 4, 5, 6, 10, 14, 2, 9, 10, 11, 15, 16, 4, 8, 9, 10, 12, 17, 3, 4, 7, 8, 11, 12, 3, 9, 12, 13, 15, 18, 5, 6, 8, 11, 12, 18, 2, 7, 8, 9, 18, 19, 7, 8, 14, 15, 16, 17, 8, 9, 10, 14, 16, 17, 5, 6, 9, 11, 12, 20, 7, 9, 10, 14, 17, 20, 2, 6, 10, 11, 15, 16, 3, 4, 6, 16, 17, 19, 3, 9, 10, 11, 12, 14, 1, 3, 12, 13, 14, 20, 4, 5, 6, 11, 12, 18, 2, 4, 8, 10, 11, 20, 1, 2, 7, 9, 15, 19, 1, 3, 7, 10, 14, 19, 4, 5, 9, 14, 17, 20, 3, 6, 7, 11, 18, 20, 3, 8, 9, 10, 12, 19, 4, 5, 7, 8, 11, 19, 3, 7, 15, 16, 17, 18, 1, 4, 12, 13, 15, 17, 2, 3, 4, 7, 11, 17, 1, 2, 8, 10, 13, 16, 4, 5, 6, 8, 14, 19, 6, 10, 12, 15, 16, 19, 2, 6, 10, 11, 19, 20, 5, 10, 11, 12, 13, 14, 7, 12, 15, 17, 19, 20, 6, 8, 9, 10, 14, 17, 8, 10, 14, 15, 16, 18, 3, 4, 5, 11, 16, 20, 1, 2, 4, 8, 9, 19, 10, 11, 15, 16, 19, 20, 2, 7, 17, 18, 19, 20, 1, 3, 11, 12, 13, 18, 3, 4, 10, 11, 12, 13, 1, 2, 7, 12, 13, 18, 1, 2, 3, 4, 5, 16, 4, 10, 11, 12, 13, 18, 10, 11, 12, 15, 18, 19, 2, 4, 14, 16, 17, 18, 1, 3, 14, 17, 18, 19, 4, 8, 16, 17, 18, 19, 4, 10, 14, 17, 19, 20, 5, 10, 11, 12, 14, 19, 4, 7, 11, 12, 13, 15, 2, 3, 4, 10, 13, 16, 5, 6, 7, 8, 9, 12, 1, 4, 10, 13, 14, 16, 1, 15, 16, 18, 19, 20, 1, 2, 8, 9, 17, 18, 2, 12, 13, 13, 14, 15, 4, 5, 6, 7, 12, 20, 3, 4, 6, 7, 10, 20, 6, 7, 10, 13, 15, 20, 9, 12, 15, 17, 18, 19, 4, 6, 7, 9, 13, 18, 1, 2, 3, 11, 13, 16, 4, 5, 13, 15, 16, 18, 1, 3, 4, 5, 11, 19, 1, 3, 6, 8, 17, 20, 6, 11, 13, 14, 17, 19, 6, 8, 9, 13, 14, 15, 2, 9, 13, 15, 16, 20, 6, 10, 14, 15, 16, 19, 2, 4, 8, 9, 14, 19, 3, 7, 8, 11, 12, 16, 9, 15, 16, 18, 19, 20, 1, 9, 10, 13, 15, 19, 5, 10, 12, 13, 14, 16, 6, 9, 11, 13, 14, 15, 1, 4, 8, 13, 14, 15, 1, 2, 8, 13, 14, 20, 1, 2, 8, 13, 14, 18, 1, 2, 5, 6, 7, 15, 2, 5, 6, 8, 18, 20, 10, 11, 13, 14, 16, 18, 5, 6, 7, 10, 12, 20, 2, 3, 4, 11, 12, 17, 8, 15, 16, 17, 18, 20];
rreq = [|2, 1, 1, 1, 1, 1, 5, 4, 4, 3, 2, 2, 3, 3, 3, 3, 3, 3, 4, 4, 4, 4, 4, 4, 3, 3, 3, 2, 2, 2, 2, 2, 2, 2, 2, 2, 5, 5, 5, 5, 5, 5, 5, 4, 4, 4, 4, 4, 5, 4, 4, 4, 3, 3, 2, 1, 1, 1, 1, 1, 3, 3, 3, 2, 2, 2, 1, 1, 1, 1, 1, 1, 3, 3, 3, 2, 2, 1, 2, 2, 2, 2, 1, 1, 4, 3, 2, 2, 1, 1, 3, 3, 3, 3, 3, 3, 2, 2, 2, 2, 2, 2, 3, 3, 3, 3, 3, 3, 3, 3, 3, 2, 2, 1, 5, 4, 4, 4, 4, 4, 3, 2, 2, 1, 1, 1, 5, 4, 4, 4, 3, 3, 3, 3, 3, 3, 3, 3, 5, 5, 5, 5, 5, 5, 4, 4, 4, 4, 3, 3, 5, 4, 3, 3, 1, 1, 3, 2, 2, 2, 2, 2, 3, 2, 2, 2, 2, 2, 4, 4, 4, 4, 4, 4, 2, 2, 2, 2, 1, 1, 2, 2, 2, 2, 2, 2, 4, 3, 3, 3, 2, 2, 2, 2, 2, 2, 2, 2, 1, 1, 1, 1, 1, 1, 2, 2, 2, 1, 1, 1, 5, 4, 3, 3, 2, 2, 4, 3, 3, 2, 2, 1, 5, 4, 4, 4, 4, 4, 2, 2, 2, 2, 2, 2, 4, 4, 4, 4, 3, 3, 1, 1, 1, 1, 1, 1, 4, 3, 3, 3, 3, 3, 1, 1, 1, 1, 1, 1, 5, 3, 3, 2, 2, 1, 4, 3, 3, 2, 2, 2, 4, 4, 3, 3, 3, 2, 2, 1, 1, 1, 1, 1, 4, 3, 3, 3, 2, 1, 2, 2, 2, 2, 2, 2, 3, 3, 3, 2, 2, 2, 3, 2, 2, 2, 1, 1, 2, 2, 2, 2, 1, 1, 3, 3, 3, 3, 2, 2, 4, 4, 3, 3, 1, 1, 1, 1, 1, 1, 1, 1, 4, 3, 3, 3, 3, 3, 5, 4, 4, 3, 3, 3, 2, 2, 2, 2, 1, 1, 3, 3, 3, 2, 2, 2, 5, 4, 4, 3, 3, 3, 5, 4, 3, 3, 3, 2, 4, 4, 4, 4, 4, 4, 5, 3, 3, 2, 1, 1, 3, 3, 3, 2, 1, 1, 4, 4, 4, 3, 3, 2, 4, 4, 3, 3, 1, 1, 3, 3, 3, 3, 3, 3, 2, 2, 2, 2, 2, 2, 1, 1, 1, 1, 1, 1, 4, 3, 3, 3, 2, 1, 5, 4, 4, 4, 4, 4, 4, 3, 3, 2, 2, 2, 3, 2, 2, 2, 2, 2, 4, 4, 4, 4, 4, 4, 4, 4, 4, 4, 4, 4, 5, 4, 4, 3, 3, 2, 4, 3, 2, 2, 1, 1, 3, 3, 2, 2, 2, 1, 3, 3, 3, 3, 3, 3, 2, 2, 2, 2, 1, 1, 4, 4, 4, 4, 4, 4, 4, 3, 3, 2, 2, 1, 5, 4, 4, 4, 4, 4, 4, 4, 4, 3, 3, 2, 4, 3, 3, 2, 1, 1, 2, 2, 2, 2, 2, 2, 3, 3, 3, 3, 3, 3, 1, 1, 1, 1, 1, 1, 2, 2, 2, 2, 2, 2, 3, 2, 2, 2, 2, 2, 2, 2, 2, 2, 2, 2, 2, 2, 2, 2, 2, 2, 4, 3, 3, 3, 3, 3, 5, 4, 4, 3, 3, 3, 5, 4, 4, 4, 4, 4, 3, 3, 3, 2, 2, 1, 3, 3, 2, 2, 1, 1, 3, 3, 3, 3, 3, 3, 5, 3, 3, 2, 2, 1, 3, 3, 3, 2, 2, 2
 |4, 4, 4, 4, 4, 4, 2, 2, 2, 2, 1, 1, 4, 4, 4, 4, 3, 3, 2, 2, 2, 2, 1, 1, 2, 2, 2, 2, 1, 1, 4, 3, 3, 3, 2, 1, 3, 3, 3, 2, 2, 1, 4, 3, 3, 3, 2, 2, 5, 4, 4, 3, 2, 2, 1, 1, 1, 1, 1, 1, 5, 5, 5, 5, 5, 5, 2, 2, 2, 2, 2, 2, 3, 2, 2, 1, 1, 1, 4, 3, 3, 3, 2, 2, 4, 4, 4, 4, 3, 3, 5, 4, 4, 3, 3, 3, 5, 4, 4, 4, 3, 3, 5, 4, 4, 3, 3, 3, 4, 3, 2, 2, 2, 1, 1, 1, 1, 1, 1, 1, 5, 5, 5, 5, 5, 5, 2, 2, 2, 2, 2, 2, 4, 3, 3, 3, 2, 2, 4, 4, 3, 3, 1, 1, 2, 2, 2, 2, 1, 1, 5, 4, 3, 3, 2, 1, 5, 4, 4, 3, 2, 2, 2, 2, 2, 2, 1, 1, 4, 4, 4, 4, 3, 3, 2, 1, 1, 1, 1, 1, 4, 3, 3, 2, 1, 1, 2, 2, 2, 2, 2, 2, 4, 3, 3, 2, 2, 2, 4, 4, 4, 4, 4, 4, 4, 3, 3, 3, 3, 3, 4, 3, 3, 3, 3, 3, 5, 4, 4, 4, 4, 4, 3, 2, 2, 2, 1, 1, 2, 2, 2, 2, 2, 2, 3, 3, 2, 2, 2, 1, 4, 3, 3, 3, 3, 3, 3, 3, 3, 3, 3, 3, 3, 2, 2, 2, 2, 2, 2, 2, 2, 2, 1, 1, 5, 4, 3, 2, 2, 1, 4, 3, 3, 2, 2, 2, 3, 3, 3, 3, 3, 3, 4, 4, 4, 3, 3, 3, 2, 2, 2, 2, 2, 2, 4, 4, 4, 3, 2, 2, 3, 3, 3, 2, 1, 1, 4, 4, 4, 3, 2, 2, 2, 1, 1, 1, 1, 1, 3, 3, 3, 3, 3, 3, 5, 4, 4, 3, 3, 2, 4, 4, 4, 4, 4, 4, 3, 3, 3, 3, 3, 3, 5, 4, 4, 3, 3, 3, 5, 3, 3, 2, 1, 1, 4, 4, 3, 3, 1, 1, 3, 3, 3, 3, 3, 3, 5, 4, 4, 4, 4, 4, 4, 4, 4, 4, 4, 4, 4, 3, 2, 2, 1, 1, 3, 3, 3, 3, 3, 3, 2, 2, 2, 2, 2, 2, 3, 3, 3, 3, 3, 3, 2, 2, 2, 2, 1, 1, 5, 4, 4, 3, 3, 3, 1, 1, 1, 1, 1, 1, 3, 3, 3, 3, 3, 3, 4, 4, 4, 4, 3, 3, 4, 4, 4, 4, 4, 4, 5, 4, 4, 3, 3, 2, 3, 2, 2, 2, 2, 2, 2, 2, 2, 2, 2, 2, 3, 2, 2, 2, 2, 2, 4, 4, 3, 3, 2, 2, 2, 2, 2, 2, 2, 2, 1, 1, 1, 1, 1, 1, 5, 4, 3, 3, 1, 1, 3, 2, 2, 2, 2, 2, 5, 4, 4, 3, 3, 3, 2, 1, 1, 1, 1, 1, 1, 1, 1, 1, 1, 1, 4, 3, 3, 2, 2, 2, 2, 2, 2, 2, 2, 2, 2, 1, 1, 1, 1, 1, 3, 3, 3, 3, 3, 3, 3, 2, 2, 1, 1, 1, 5, 4, 3, 3, 3, 2, 4, 4, 3, 3, 2, 1, 5, 3, 3, 2, 1, 1, 2, 1, 1, 1, 1, 1, 3, 3, 2, 2, 1, 1, 2, 2, 2, 1, 1, 1, 3, 3, 3, 3, 3, 3, 2, 2, 2, 2, 2, 2, 4, 3, 3, 3, 2, 2, 1, 1, 1, 1, 1, 1
 |17, 16, 12, 10, 4, 2, 12, 12, 10, 7, 4, 3, 20, 16, 13, 11, 8, 7, 11, 11, 10, 9, 8, 8, 20, 15, 13, 12, 10, 6, 13, 12, 11, 11, 9, 9, 14, 13, 12, 12, 11, 11, 12, 11, 11, 11, 10, 10, 16, 16, 12, 10, 5, 2, 4, 3, 2, 2, 1, 1, 15, 14, 14, 14, 14, 14, 20, 18, 16, 15, 13, 12, 13, 12, 11, 11, 9, 9, 9, 8, 6, 6, 4, 4, 2, 2, 2, 2, 2, 2, 11, 10, 10, 9, 8, 7, 5, 4, 3, 3, 2, 2, 15, 12, 11, 11, 9, 8, 18, 17, 16, 16, 16, 15, 8, 7, 7, 6, 4, 3, 5, 3, 3, 2, 1, 1, 7, 5, 4, 3, 2, 2, 16, 13, 11, 10, 8, 6, 12, 10, 8, 8, 5, 4, 13, 12, 11, 11, 10, 10, 13, 12, 12, 11, 9, 9, 14, 14, 10, 9, 8, 5, 9, 7, 7, 4, 4, 2, 18, 17, 15, 15, 13, 10, 16, 16, 14, 14, 12, 12, 16, 16, 16, 16, 15, 15, 11, 10, 9, 9, 9, 8, 16, 16, 16, 16, 15, 15, 7, 5, 4, 4, 2, 2, 20, 17, 16, 14, 12, 11, 15, 12, 12, 11, 9, 9, 15, 14, 14, 14, 14, 14, 12, 12, 11, 11, 11, 10, 4, 3, 3, 2, 2, 1, 12, 12, 12, 12, 12, 12, 19, 14, 14, 10, 8, 3, 10, 8, 8, 8, 7, 6, 18, 16, 15, 13, 12, 10, 18, 17, 16, 14, 14, 12, 16, 15, 15, 15, 15, 15, 15, 15, 15, 15, 15, 15, 16, 15, 14, 12, 12, 11, 20, 19, 19, 18, 18, 18, 10, 10, 10, 9, 9, 9, 15, 14, 12, 10, 10, 7, 18, 18, 17, 17, 17, 16, 6, 6, 6, 5, 4, 4, 15, 14, 14, 14, 13, 13, 7, 6, 6, 6, 5, 5, 16, 14, 13, 13, 11, 10, 12, 10, 9, 9, 8, 6, 9, 7, 7, 6, 4, 4, 11, 11, 11, 11, 11, 11, 18, 18, 18, 18, 18, 18, 10, 10, 10, 9, 9, 8, 10, 10, 10, 10, 10, 10, 18, 17, 15, 14, 13, 13, 18, 17, 13, 8, 7, 5, 15, 14, 14, 13, 12, 11, 18, 18, 18, 17, 17, 17, 14, 12, 10, 8, 7, 4, 10, 10, 10, 10, 10, 10, 15, 13, 12, 12, 10, 9, 17, 17, 17, 17, 17, 17, 18, 15, 13, 10, 9, 6, 13, 11, 10, 9, 9, 8, 20, 19, 19, 18, 17, 17, 18, 16, 14, 12, 11, 9, 13, 13, 13, 12, 12, 12, 9, 9, 8, 7, 6, 6, 6, 5, 5, 4, 2, 2, 16, 14, 13, 12, 9, 9, 11, 8, 8, 6, 3, 3, 18, 17, 14, 11, 5, 5, 8, 5, 5, 4, 2, 1, 7, 7, 7, 7, 7, 7, 18, 18, 17, 17, 15, 15, 14, 14, 14, 14, 14, 14, 19, 18, 16, 15, 14, 13, 13, 11, 10, 10, 7, 6, 15, 12, 11, 8, 8, 5, 3, 3, 3, 2, 2, 2, 12, 9, 7, 7, 6, 3, 20, 14, 13, 11, 6, 4, 6, 5, 4, 4, 3, 3, 9, 9, 8, 7, 6, 4, 17, 16, 13, 12, 7, 5, 10, 10, 10, 9, 9, 9, 3, 2, 2, 2, 2, 2, 15, 14, 11, 8, 7, 6, 17, 15, 13, 11, 10, 9, 11, 10, 10, 10, 9, 9, 14, 13, 13, 13, 13, 13, 17, 12, 9, 9, 5, 2, 19, 18, 17, 14, 13, 12
 |18, 18, 18, 17, 16, 16, 10, 9, 8, 6, 5, 2, 10, 9, 9, 9, 8, 8, 12, 10, 8, 6, 5, 1, 14, 13, 13, 13, 13, 13, 16, 16, 12, 9, 8, 5, 9, 7, 7, 6, 2, 2, 18, 16, 15, 14, 12, 11, 17, 17, 13, 12, 10, 8, 18, 16, 15, 14, 12, 11, 9, 9, 8, 8, 7, 6, 7, 6, 4, 4, 2, 2, 14, 12, 10, 9, 8, 5, 18, 17, 17, 16, 16, 15, 19, 15, 13, 11, 10, 9, 2, 2, 1, 1, 1, 1, 10, 9, 9, 8, 9, 8, 11, 10, 10, 9, 9, 9, 19, 17, 12, 10, 5, 3, 8, 7, 6, 5, 4, 2, 16, 16, 14, 10, 10, 7, 19, 18, 18, 18, 17, 16, 16, 15, 11, 9, 7, 7, 11, 10, 11, 10, 9, 9, 15, 15, 13, 11, 8, 7, 19, 16, 15, 13, 13, 11, 7, 6, 4, 4, 3, 2, 6, 5, 4, 3, 2, 1, 6, 5, 5, 4, 3, 2, 18, 16, 15, 14, 13, 12, 9, 8, 7, 8, 8, 7, 6, 5, 5, 4, 4, 3, 17, 16, 15, 14, 13, 12, 13, 13, 12, 10, 9, 8, 12, 10, 8, 6, 4, 1, 10, 10, 9, 8, 7, 5, 8, 7, 6, 6, 4, 3, 3, 2, 2, 1, 1, 1, 17, 14, 13, 12, 10, 8, 17, 14, 14, 10, 8, 8, 17, 15, 12, 12, 10, 7, 18, 18, 17, 16, 17, 17, 5, 4, 4, 3, 2, 2, 16, 15, 15, 13, 13, 12, 19, 19, 18, 17, 16, 15, 17, 15, 14, 12, 11, 10, 16, 14, 14, 14, 13, 12, 7, 7, 6, 7, 6, 6, 16, 13, 12, 10, 9, 7, 4, 4, 4, 4, 3, 3, 18, 16, 16, 12, 10, 9, 9, 8, 7, 7, 6, 4, 8, 7, 6, 4, 4, 2, 20, 15, 13, 11, 9, 8, 6, 5, 5, 5, 4, 4, 20, 20, 20, 19, 20, 20, 17, 15, 10, 8, 4, 3, 16, 15, 14, 13, 12, 11, 13, 12, 11, 10, 10, 9, 11, 10, 8, 8, 6, 6, 9, 9, 8, 6, 5, 2, 7, 7, 6, 5, 4, 3, 15, 12, 10, 8, 4, 4, 17, 15, 13, 10, 8, 8, 7, 6, 5, 6, 5, 4, 11, 10, 10, 9, 7, 7, 17, 16, 15, 13, 10, 9, 17, 15, 14, 11, 10, 9, 11, 10, 9, 10, 9, 8, 20, 19, 18, 16, 16, 15, 17, 16, 14, 13, 11, 9, 15, 15, 14, 15, 15, 14, 9, 8, 6, 5, 4, 3, 18, 17, 15, 14, 13, 12, 7, 7, 7, 6, 6, 5, 16, 15, 13, 13, 12, 11, 13, 12, 12, 11, 11, 10, 19, 17, 16, 14, 13, 12, 7, 7, 5, 5, 3, 1, 18, 15, 14, 12, 9, 7, 6, 5, 4, 3, 3, 2, 17, 16, 15, 14, 13, 13, 17, 15, 13, 10, 6, 1, 8, 8, 7, 7, 6, 6, 12, 11, 11, 10, 10, 9, 11, 11, 11, 10, 9, 10, 13, 11, 10, 9, 5, 4, 19, 14, 14, 11, 10, 8, 3, 2, 2, 1, 1, 1, 13, 10, 8, 7, 4, 2, 3, 2, 2, 2, 2, 2, 10, 10, 10, 10, 10, 10, 12, 10, 9, 7, 5, 4, 17, 16, 14, 12, 11, 9, 7, 7, 7, 7, 7, 7, 14, 12, 10, 9, 6, 6, 9, 8, 8, 7, 7, 6, 8, 7, 6, 4, 3, 2, 19, 18, 18, 17, 17, 17, 5, 4, 4, 3, 3, 2|];